
Log started (V11.0.0) Fri May 16 20:26:34 2008

Tried aggregator 1 time.
Reduced MIP has 250 rows, 10001 columns, and 20050 nonzeros.
Presolve time =    0.08 sec.
Clique table members: 200.
MIP emphasis: balance optimality and feasibility.
MIP search method: dynamic search.
Parallel mode: none, using 1 thread.
Root relaxation solution time =    0.56 sec.

        Nodes                                         Cuts/
   Node  Left     Objective  IInf  Best Integer     Best Node    ItCnt     Gap

*     0+    0                        22032.0000      400.4200      683   98.18%
*     0+    0                          402.0000      400.4200      683    0.39%
      0     0      401.0000    62      402.0000      Fract: 6      707    0.25%
      0     0      401.0000    62      402.0000     Covers: 1      711    0.25%
      0     2      401.0000    62      402.0000      401.0000      711    0.25%
    100    54    infeasible            402.0000      401.0000    26354    0.25%
    200   109      401.0000    57      402.0000      401.0000    46267    0.25%
    300   144      401.0000    81      402.0000      401.0000    66709    0.25%
    400   172      401.0000    79      402.0000      401.0000    73884    0.25%
    500   201    infeasible            402.0000      401.0000    90798    0.25%
    600   197    infeasible            402.0000      401.0000   105809    0.25%
    700   175      401.0000    63      402.0000      401.0000   116347    0.25%
    800   156      401.0000    78      402.0000      401.0000   127456    0.25%
    900   210      401.0000    67      402.0000      401.0000   136849    0.25%
   1000   268      401.0000    71      402.0000      401.0000   144373    0.25%
Elapsed time =  55.63 sec. (tree size =  1.69 MB, solutions = 2)
   1100   320    infeasible            402.0000      401.0000   158025    0.25%
   1200   390      401.0000    86      402.0000      401.0000   167305    0.25%
   1300   428      401.0000    93      402.0000      401.0000   187472    0.25%
   1400   488      401.0000    74      402.0000      401.0000   197985    0.25%
   1500   570      401.0000    59      402.0000      401.0000   203829    0.25%
   1600   630      401.0000    85      402.0000      401.0000   214938    0.25%
   1700   704      401.0000    77      402.0000      401.0000   224112    0.25%
   1800   772      401.0000    87      402.0000      401.0000   234170    0.25%
   1900   832      401.0000    76      402.0000      401.0000   244916    0.25%
   2000   888      401.0000    66      402.0000      401.0000   256649    0.25%
Elapsed time =  94.47 sec. (tree size =  6.07 MB, solutions = 2)
   2100   952      401.0000    52      402.0000      401.0000   266004    0.25%
   2200  1018      401.0000    82      402.0000      401.0000   277238    0.25%
   2300  1096      401.0000    63      402.0000      401.0000   288666    0.25%
   2400  1148    infeasible            402.0000      401.0000   302888    0.25%
   2500  1210      401.0000    90      402.0000      401.0000   315004    0.25%
   2600  1164    infeasible            402.0000      401.0000   347787    0.25%
   2700  1208    infeasible            402.0000      401.0000   360341    0.25%
   2800  1268      401.0000   102      402.0000      401.0000   379722    0.25%
   2900  1198    infeasible            402.0000      401.0000   409214    0.25%
   3000  1132      401.0000    97      402.0000      401.0000   434376    0.25%
Elapsed time = 150.20 sec. (tree size =  8.26 MB, solutions = 2)
   3100  1204      401.0000   107      402.0000      401.0000   445595    0.25%
   3200  1296      401.0000   116      402.0000      401.0000   455503    0.25%
   3300  1310    infeasible            402.0000      401.0000   474817    0.25%
   3400  1338    infeasible            402.0000      401.0000   491528    0.25%
   3500  1286      401.0000   122      402.0000      401.0000   516731    0.25%
   3600  1284    infeasible            402.0000      401.0000   538295    0.25%
   3700  1184    infeasible            402.0000      401.0000   567230    0.25%
   3800  1116    infeasible            402.0000      401.0000   607764    0.25%
   3900  1016    infeasible            402.0000      401.0000   636103    0.25%
   4000  1004      401.0000   119      402.0000      401.0000   658666    0.25%
Elapsed time = 224.48 sec. (tree size =  7.86 MB, solutions = 2)
   4100   926    infeasible            402.0000      401.0000   684012    0.25%
   4200   844    infeasible            402.0000      401.0000   717103    0.25%
   4300   784      401.0000    95      402.0000      401.0000   741188    0.25%
   4400   812    infeasible            402.0000      401.0000   759876    0.25%
   4500   714    infeasible            402.0000      401.0000   792399    0.25%
   4600   614    infeasible            402.0000      401.0000   833245    0.25%
   4700   514    infeasible            402.0000      401.0000   871992    0.25%
   4800   414    infeasible            402.0000      401.0000   912999    0.25%
   4900   314    infeasible            402.0000      401.0000   960219    0.25%
   5000   214    infeasible            402.0000      401.0000  1011010    0.25%
Elapsed time = 343.36 sec. (tree size =  1.82 MB, solutions = 2)
   5100   114    infeasible            402.0000      401.0000  1067741    0.25%
   5200    14    infeasible            402.0000      401.0000  1127078    0.25%

Cover cuts applied:  292
Gomory fractional cuts applied:  2

Solution pool: 2 solutions saved.

MIP - Integer optimal solution:  Objective = 4.0200000000e+002
Solution time =  397.33 sec.  Iterations = 1135897  Nodes = 5215


Incumbent solution
Variable Name           Solution Value
Cmax                        402.000000
X_1_11                        1.000000
X_2_41                        1.000000
X_3_7                         1.000000
X_4_40                        1.000000
X_5_16                        1.000000
X_6_30                        1.000000
X_7_41                        1.000000
X_8_4                         1.000000
X_9_13                        1.000000
X_10_26                       1.000000
X_11_28                       1.000000
X_12_5                        1.000000
X_13_28                       1.000000
X_14_39                       1.000000
X_15_9                        1.000000
X_16_14                       1.000000
X_17_16                       1.000000
X_18_25                       1.000000
X_19_25                       1.000000
X_20_36                       1.000000
X_21_4                        1.000000
X_22_30                       1.000000
X_23_49                       1.000000
X_24_15                       1.000000
X_25_7                        1.000000
X_26_17                       1.000000
X_27_50                       1.000000
X_28_20                       1.000000
X_29_10                       1.000000
X_30_22                       1.000000
X_31_31                       1.000000
X_32_43                       1.000000
X_33_26                       1.000000
X_34_30                       1.000000
X_35_17                       1.000000
X_36_38                       1.000000
X_37_27                       1.000000
X_38_38                       1.000000
X_39_45                       1.000000
X_40_20                       1.000000
X_41_7                        1.000000
X_42_14                       1.000000
X_43_19                       1.000000
X_44_23                       1.000000
X_45_32                       1.000000
X_46_42                       1.000000
X_47_1                        1.000000
X_48_8                        1.000000
X_49_34                       1.000000
X_50_40                       1.000000
X_51_49                       1.000000
X_52_3                        1.000000
X_53_12                       1.000000
X_54_21                       1.000000
X_55_16                       1.000000
X_56_8                        1.000000
X_57_13                       1.000000
X_58_10                       1.000000
X_59_12                       1.000000
X_60_38                       1.000000
X_61_15                       1.000000
X_62_26                       1.000000
X_63_23                       1.000000
X_64_39                       1.000000
X_65_2                        1.000000
X_66_42                       1.000000
X_67_2                        1.000000
X_68_45                       1.000000
X_69_6                        1.000000
X_70_46                       1.000000
X_71_24                       1.000000
X_72_11                       1.000000
X_73_9                        1.000000
X_74_24                       1.000000
X_75_50                       1.000000
X_76_34                       1.000000
X_77_15                       1.000000
X_78_29                       1.000000
X_79_34                       1.000000
X_80_20                       1.000000
X_81_42                       1.000000
X_82_29                       1.000000
X_83_1                        1.000000
X_84_50                       1.000000
X_85_6                        1.000000
X_86_36                       1.000000
X_87_41                       1.000000
X_88_3                        1.000000
X_89_14                       1.000000
X_90_46                       1.000000
X_91_9                        1.000000
X_92_46                       1.000000
X_93_21                       1.000000
X_94_37                       1.000000
X_95_13                       1.000000
X_96_35                       1.000000
X_97_19                       1.000000
X_98_48                       1.000000
X_99_48                       1.000000
X_100_8                       1.000000
X_101_32                      1.000000
X_102_39                      1.000000
X_103_10                      1.000000
X_104_4                       1.000000
X_105_47                      1.000000
X_106_17                      1.000000
X_107_24                      1.000000
X_108_8                       1.000000
X_109_14                      1.000000
X_110_18                      1.000000
X_111_22                      1.000000
X_112_32                      1.000000
X_113_41                      1.000000
X_114_28                      1.000000
X_115_2                       1.000000
X_116_18                      1.000000
X_117_35                      1.000000
X_118_35                      1.000000
X_119_22                      1.000000
X_120_40                      1.000000
X_121_34                      1.000000
X_122_11                      1.000000
X_123_48                      1.000000
X_124_23                      1.000000
X_125_42                      1.000000
X_126_9                       1.000000
X_127_6                       1.000000
X_128_26                      1.000000
X_129_22                      1.000000
X_130_43                      1.000000
X_131_12                      1.000000
X_132_29                      1.000000
X_133_27                      1.000000
X_134_12                      1.000000
X_135_20                      1.000000
X_136_49                      1.000000
X_137_10                      1.000000
X_138_33                      1.000000
X_139_23                      1.000000
X_140_7                       1.000000
X_141_36                      1.000000
X_142_44                      1.000000
X_143_46                      1.000000
X_144_25                      1.000000
X_145_38                      1.000000
X_146_3                       1.000000
X_147_21                      1.000000
X_148_44                      1.000000
X_149_43                      1.000000
X_150_5                       1.000000
X_151_27                      1.000000
X_152_31                      1.000000
X_153_29                      1.000000
X_154_32                      1.000000
X_155_47                      1.000000
X_156_49                      1.000000
X_157_48                      1.000000
X_158_45                      1.000000
X_159_17                      1.000000
X_160_31                      1.000000
X_161_37                      1.000000
X_162_21                      1.000000
X_163_11                      1.000000
X_164_4                       1.000000
X_165_50                      1.000000
X_166_13                      1.000000
X_167_3                       1.000000
X_168_45                      1.000000
X_169_44                      1.000000
X_170_43                      1.000000
X_171_47                      1.000000
X_172_35                      1.000000
X_173_39                      1.000000
X_174_16                      1.000000
X_175_33                      1.000000
X_176_31                      1.000000
X_177_24                      1.000000
X_178_1                       1.000000
X_179_37                      1.000000
X_180_5                       1.000000
X_181_30                      1.000000
X_182_33                      1.000000
X_183_28                      1.000000
X_184_44                      1.000000
X_185_19                      1.000000
X_186_36                      1.000000
X_187_5                       1.000000
X_188_47                      1.000000
X_189_33                      1.000000
X_190_1                       1.000000
X_191_2                       1.000000
X_192_19                      1.000000
X_193_37                      1.000000
X_194_18                      1.000000
X_195_27                      1.000000
X_196_15                      1.000000
X_197_40                      1.000000
X_198_25                      1.000000
X_199_6                       1.000000
X_200_18                      1.000000
All other variables in the range 1-10001 are 0.
